(set-logic QF_S)
(declare-fun var0 () Int)
(declare-fun var1 () Int)
(declare-fun var2 () Bool)
(declare-fun var3 () String)
(declare-fun var4 () Int)
(declare-fun var5 () String)
(declare-fun var6 () String)
(declare-fun var7 () String)
(assert (not (>= var0 var1)))
(assert (not var2))
(assert (str.contains (str.at (str.at var3 var4) (str.len var5)) (str.replace var6 var7 "?`-HpGv1K")))
(assert (str.contains (str.replace var6 var6 var3) (str.replace var7 var7 var5)))
(check-sat)